(set-logic ALL)
(declare-fun var0 () String)
(assert (str.in_re var0 (re.++ (re.union (re.union (re.+ (re.union (re.* (re.+ (re.union (re.+ (re.union (re.+ (re.+ (re.union (re.* (str.to_re "0")) (re.* (str.to_re "1"))))) (re.+ (re.union (re.+ (re.* (str.to_re "2"))) (re.+ (re.* (str.to_re "3"))))))) (re.+ (re.+ (re.+ (re.+ (re.+ (re.union (str.to_re "44") (str.to_re "5")))))))))) (re.* (re.union (re.union (re.+ (re.+ (re.+ (re.union (re.+ (re.union (str.to_re "666") (str.to_re "77"))) (re.+ (re.* (str.to_re "8"))))))) (re.+ (re.union (re.union (re.+ (re.union (re.* (str.to_re "99")) (re.* (str.to_re "aa")))) (re.+ (re.union (re.* (str.to_re "bb")) (re.* (str.to_re "cc"))))) (re.union (re.+ (re.+ (re.* (str.to_re "dd")))) (re.+ (re.* (re.* (str.to_re "e")))))))) (re.union (re.+ (re.union (re.* (re.union (re.union (re.union (str.to_re "f") (str.to_re "g")) (re.union (str.to_re "hh") (str.to_re "ii"))) (re.union (re.* (str.to_re "jjj")) (re.* (str.to_re "k"))))) (re.* (re.union (re.+ (re.* (str.to_re "lll"))) (re.+ (re.* (str.to_re "mmm"))))))) (re.+ (re.* (re.+ (re.+ (re.union (re.+ (str.to_re "n")) (re.+ (str.to_re "oo")))))))))))) (re.+ (re.union (re.* (re.* (re.* (re.+ (re.* (re.* (re.union (re.+ (re.union (str.to_re "p") (str.to_re "q"))) (re.+ (re.union (str.to_re "rr") (str.to_re "s")))))))))) (re.* (re.union (re.* (re.* (re.+ (re.* (re.union (re.+ (re.union (str.to_re "t") (str.to_re "uuu"))) (re.+ (re.union (str.to_re "vvv") (str.to_re "www")))))))) (re.* (re.union (re.* (re.* (re.* (re.* (re.+ (str.to_re "xx")))))) (re.* (re.* (re.union (re.* (re.+ (str.to_re "y"))) (re.* (re.union (str.to_re "z") (str.to_re "AAA"))))))))))))) (re.union (re.union (re.+ (re.* (re.* (re.* (re.union (re.union (re.+ (re.* (re.* (re.* (str.to_re "BBB"))))) (re.+ (re.* (re.union (re.* (str.to_re "CCC")) (re.* (str.to_re "DDD")))))) (re.union (re.+ (re.+ (re.union (re.union (str.to_re "E") (str.to_re "FF")) (re.union (str.to_re "GGG") (str.to_re "H"))))) (re.+ (re.* (re.* (re.union (str.to_re "I") (str.to_re "J"))))))))))) (re.+ (re.* (re.* (re.+ (re.* (re.+ (re.union (re.* (re.* (re.union (str.to_re "KKK") (str.to_re "L")))) (re.* (re.* (re.+ (str.to_re "M")))))))))))) (re.union (re.union (re.* (re.+ (re.union (re.* (re.+ (re.+ (re.* (re.union (re.union (str.to_re "NN") (str.to_re "OO")) (re.union (str.to_re "PP") (str.to_re "QQQ"))))))) (re.* (re.union (re.* (re.+ (re.* (re.* (str.to_re "R"))))) (re.* (re.+ (re.+ (re.union (str.to_re "SS") (str.to_re "TTT")))))))))) (re.* (re.+ (re.* (re.* (re.+ (re.* (re.* (re.+ (re.* (str.to_re "U"))))))))))) (re.union (re.* (re.* (re.union (re.* (re.union (re.+ (re.* (re.+ (re.+ (str.to_re "VV"))))) (re.+ (re.+ (re.* (re.* (str.to_re "WW"))))))) (re.* (re.union (re.union (re.* (re.union (re.union (str.to_re "XXX") (str.to_re "YY")) (re.union (str.to_re "Z") (str.to_re "!!")))) (re.* (re.* (re.union (str.to_re """""") (str.to_re "###"))))) (re.union (re.* (re.+ (re.union (str.to_re "$") (str.to_re "%%%")))) (re.* (re.* (re.* (str.to_re "&")))))))))) (re.* (re.* (re.* (re.+ (re.union (re.* (re.union (re.+ (re.* (str.to_re "'"))) (re.+ (re.* (str.to_re "("))))) (re.* (re.+ (re.+ (re.+ (str.to_re "))")))))))))))))) (re.+ (re.* (re.* (re.* (re.union (re.union (re.union (re.+ (re.* (re.* (re.union (re.* (re.* (str.to_re "*"))) (re.* (re.+ (str.to_re "+++"))))))) (re.+ (re.union (re.union (re.+ (re.+ (re.* (str.to_re ",")))) (re.+ (re.+ (re.* (str.to_re "---"))))) (re.union (re.+ (re.union (re.union (str.to_re ".") (str.to_re "///")) (re.union (str.to_re ":") (str.to_re ";;")))) (re.+ (re.* (re.* (str.to_re "<<<")))))))) (re.union (re.* (re.union (re.+ (re.* (re.+ (re.* (str.to_re "=="))))) (re.+ (re.* (re.* (re.+ (str.to_re ">>"))))))) (re.* (re.* (re.union (re.+ (re.+ (re.union (str.to_re "?") (str.to_re "@")))) (re.+ (re.+ (re.* (str.to_re "["))))))))) (re.union (re.union (re.+ (re.union (re.* (re.* (re.* (re.union (str.to_re "\\\\\\") (str.to_re "]]]"))))) (re.* (re.* (re.+ (re.union (str.to_re "^^") (str.to_re "___"))))))) (re.+ (re.* (re.+ (re.union (re.+ (re.* (str.to_re "```"))) (re.+ (re.union (str.to_re "{{{") (str.to_re "|")))))))) (re.union (re.+ (re.union (re.+ (re.union (re.+ (re.* (str.to_re "}}}"))) (re.+ (re.union (str.to_re "~~") (str.to_re "0"))))) (re.+ (re.union (re.union (re.union (str.to_re "111") (str.to_re "22")) (re.union (str.to_re "3") (str.to_re "44"))) (re.union (re.+ (str.to_re "555")) (re.+ (str.to_re "666"))))))) (re.+ (re.union (re.union (re.union (re.union (re.+ (str.to_re "777")) (re.+ (str.to_re "8"))) (re.union (re.* (str.to_re "999")) (re.* (str.to_re "a")))) (re.union (re.* (re.union (str.to_re "bbb") (str.to_re "ccc"))) (re.* (re.union (str.to_re "dd") (str.to_re "eee"))))) (re.union (re.* (re.union (re.union (str.to_re "fff") (str.to_re "ggg")) (re.union (str.to_re "hhh") (str.to_re "iii")))) (re.* (re.* (re.+ (str.to_re "jj")))))))))))))))))
(assert (<= 15 (str.len var0)))
(check-sat)